c FILE: queen10_10.col
c Translated from Stanford GraphBase File: queen10_10.gb
c Stanford GraphBase ID: gunion(board(10,10,0,0,-1,0,0),board(10,10,0,0,-2,0,0),0,0)
p edge 100 2940
e 2 1
e 3 1
e 3 2
e 4 1
e 4 2
e 4 3
e 5 1
e 5 2
e 5 3
e 5 4
e 6 1
e 6 2
e 6 3
e 6 4
e 6 5
e 7 1
e 7 2
e 7 3
e 7 4
e 7 5
e 7 6
e 8 1
e 8 2
e 8 3
e 8 4
e 8 5
e 8 6
e 8 7
e 9 1
e 9 2
e 9 3
e 9 4
e 9 5
e 9 6
e 9 7
e 9 8
e 10 1
e 10 2
e 10 3
e 10 4
e 10 5
e 10 6
e 10 7
e 10 8
e 10 9
e 11 1
e 11 2
e 12 1
e 12 2
e 12 3
e 12 11
e 13 2
e 13 3
e 13 4
e 13 11
e 13 12
e 14 3
e 14 4
e 14 5
e 14 11
e 14 12
e 14 13
e 15 4
e 15 5
e 15 6
e 15 11
e 15 12
e 15 13
e 15 14
e 16 5
e 16 6
e 16 7
e 16 11
e 16 12
e 16 13
e 16 14
e 16 15
e 17 6
e 17 7
e 17 8
e 17 11
e 17 12
e 17 13
e 17 14
e 17 15
e 17 16
e 18 7
e 18 8
e 18 9
e 18 11
e 18 12
e 18 13
e 18 14
e 18 15
e 18 16
e 18 17
e 19 8
e 19 9
e 19 10
e 19 11
e 19 12
e 19 13
e 19 14
e 19 15
e 19 16
e 19 17
e 19 18
e 20 9
e 20 10
e 20 11
e 20 12
e 20 13
e 20 14
e 20 15
e 20 16
e 20 17
e 20 18
e 20 19
e 21 1
e 21 3
e 21 11
e 21 12
e 22 2
e 22 4
e 22 11
e 22 12
e 22 13
e 22 21
e 23 1
e 23 3
e 23 5
e 23 12
e 23 13
e 23 14
e 23 21
e 23 22
e 24 2
e 24 4
e 24 6
e 24 13
e 24 14
e 24 15
e 24 21
e 24 22
e 24 23
e 25 3
e 25 5
e 25 7
e 25 14
e 25 15
e 25 16
e 25 21
e 25 22
e 25 23
e 25 24
e 26 4
e 26 6
e 26 8
e 26 15
e 26 16
e 26 17
e 26 21
e 26 22
e 26 23
e 26 24
e 26 25
e 27 5
e 27 7
e 27 9
e 27 16
e 27 17
e 27 18
e 27 21
e 27 22
e 27 23
e 27 24
e 27 25
e 27 26
e 28 6
e 28 8
e 28 10
e 28 17
e 28 18
e 28 19
e 28 21
e 28 22
e 28 23
e 28 24
e 28 25
e 28 26
e 28 27
e 29 7
e 29 9
e 29 18
e 29 19
e 29 20
e 29 21
e 29 22
e 29 23
e 29 24
e 29 25
e 29 26
e 29 27
e 29 28
e 30 8
e 30 10
e 30 19
e 30 20
e 30 21
e 30 22
e 30 23
e 30 24
e 30 25
e 30 26
e 30 27
e 30 28
e 30 29
e 31 1
e 31 4
e 31 11
e 31 13
e 31 21
e 31 22
e 32 2
e 32 5
e 32 12
e 32 14
e 32 21
e 32 22
e 32 23
e 32 31
e 33 3
e 33 6
e 33 11
e 33 13
e 33 15
e 33 22
e 33 23
e 33 24
e 33 31
e 33 32
e 34 1
e 34 4
e 34 7
e 34 12
e 34 14
e 34 16
e 34 23
e 34 24
e 34 25
e 34 31
e 34 32
e 34 33
e 35 2
e 35 5
e 35 8
e 35 13
e 35 15
e 35 17
e 35 24
e 35 25
e 35 26
e 35 31
e 35 32
e 35 33
e 35 34
e 36 3
e 36 6
e 36 9
e 36 14
e 36 16
e 36 18
e 36 25
e 36 26
e 36 27
e 36 31
e 36 32
e 36 33
e 36 34
e 36 35
e 37 4
e 37 7
e 37 10
e 37 15
e 37 17
e 37 19
e 37 26
e 37 27
e 37 28
e 37 31
e 37 32
e 37 33
e 37 34
e 37 35
e 37 36
e 38 5
e 38 8
e 38 16
e 38 18
e 38 20
e 38 27
e 38 28
e 38 29
e 38 31
e 38 32
e 38 33
e 38 34
e 38 35
e 38 36
e 38 37
e 39 6
e 39 9
e 39 17
e 39 19
e 39 28
e 39 29
e 39 30
e 39 31
e 39 32
e 39 33
e 39 34
e 39 35
e 39 36
e 39 37
e 39 38
e 40 7
e 40 10
e 40 18
e 40 20
e 40 29
e 40 30
e 40 31
e 40 32
e 40 33
e 40 34
e 40 35
e 40 36
e 40 37
e 40 38
e 40 39
e 41 1
e 41 5
e 41 11
e 41 14
e 41 21
e 41 23
e 41 31
e 41 32
e 42 2
e 42 6
e 42 12
e 42 15
e 42 22
e 42 24
e 42 31
e 42 32
e 42 33
e 42 41
e 43 3
e 43 7
e 43 13
e 43 16
e 43 21
e 43 23
e 43 25
e 43 32
e 43 33
e 43 34
e 43 41
e 43 42
e 44 4
e 44 8
e 44 11
e 44 14
e 44 17
e 44 22
e 44 24
e 44 26
e 44 33
e 44 34
e 44 35
e 44 41
e 44 42
e 44 43
e 45 1
e 45 5
e 45 9
e 45 12
e 45 15
e 45 18
e 45 23
e 45 25
e 45 27
e 45 34
e 45 35
e 45 36
e 45 41
e 45 42
e 45 43
e 45 44
e 46 2
e 46 6
e 46 10
e 46 13
e 46 16
e 46 19
e 46 24
e 46 26
e 46 28
e 46 35
e 46 36
e 46 37
e 46 41
e 46 42
e 46 43
e 46 44
e 46 45
e 47 3
e 47 7
e 47 14
e 47 17
e 47 20
e 47 25
e 47 27
e 47 29
e 47 36
e 47 37
e 47 38
e 47 41
e 47 42
e 47 43
e 47 44
e 47 45
e 47 46
e 48 4
e 48 8
e 48 15
e 48 18
e 48 26
e 48 28
e 48 30
e 48 37
e 48 38
e 48 39
e 48 41
e 48 42
e 48 43
e 48 44
e 48 45
e 48 46
e 48 47
e 49 5
e 49 9
e 49 16
e 49 19
e 49 27
e 49 29
e 49 38
e 49 39
e 49 40
e 49 41
e 49 42
e 49 43
e 49 44
e 49 45
e 49 46
e 49 47
e 49 48
e 50 6
e 50 10
e 50 17
e 50 20
e 50 28
e 50 30
e 50 39
e 50 40
e 50 41
e 50 42
e 50 43
e 50 44
e 50 45
e 50 46
e 50 47
e 50 48
e 50 49
e 51 1
e 51 6
e 51 11
e 51 15
e 51 21
e 51 24
e 51 31
e 51 33
e 51 41
e 51 42
e 52 2
e 52 7
e 52 12
e 52 16
e 52 22
e 52 25
e 52 32
e 52 34
e 52 41
e 52 42
e 52 43
e 52 51
e 53 3
e 53 8
e 53 13
e 53 17
e 53 23
e 53 26
e 53 31
e 53 33
e 53 35
e 53 42
e 53 43
e 53 44
e 53 51
e 53 52
e 54 4
e 54 9
e 54 14
e 54 18
e 54 21
e 54 24
e 54 27
e 54 32
e 54 34
e 54 36
e 54 43
e 54 44
e 54 45
e 54 51
e 54 52
e 54 53
e 55 5
e 55 10
e 55 11
e 55 15
e 55 19
e 55 22
e 55 25
e 55 28
e 55 33
e 55 35
e 55 37
e 55 44
e 55 45
e 55 46
e 55 51
e 55 52
e 55 53
e 55 54
e 56 1
e 56 6
e 56 12
e 56 16
e 56 20
e 56 23
e 56 26
e 56 29
e 56 34
e 56 36
e 56 38
e 56 45
e 56 46
e 56 47
e 56 51
e 56 52
e 56 53
e 56 54
e 56 55
e 57 2
e 57 7
e 57 13
e 57 17
e 57 24
e 57 27
e 57 30
e 57 35
e 57 37
e 57 39
e 57 46
e 57 47
e 57 48
e 57 51
e 57 52
e 57 53
e 57 54
e 57 55
e 57 56
e 58 3
e 58 8
e 58 14
e 58 18
e 58 25
e 58 28
e 58 36
e 58 38
e 58 40
e 58 47
e 58 48
e 58 49
e 58 51
e 58 52
e 58 53
e 58 54
e 58 55
e 58 56
e 58 57
e 59 4
e 59 9
e 59 15
e 59 19
e 59 26
e 59 29
e 59 37
e 59 39
e 59 48
e 59 49
e 59 50
e 59 51
e 59 52
e 59 53
e 59 54
e 59 55
e 59 56
e 59 57
e 59 58
e 60 5
e 60 10
e 60 16
e 60 20
e 60 27
e 60 30
e 60 38
e 60 40
e 60 49
e 60 50
e 60 51
e 60 52
e 60 53
e 60 54
e 60 55
e 60 56
e 60 57
e 60 58
e 60 59
e 61 1
e 61 7
e 61 11
e 61 16
e 61 21
e 61 25
e 61 31
e 61 34
e 61 41
e 61 43
e 61 51
e 61 52
e 62 2
e 62 8
e 62 12
e 62 17
e 62 22
e 62 26
e 62 32
e 62 35
e 62 42
e 62 44
e 62 51
e 62 52
e 62 53
e 62 61
e 63 3
e 63 9
e 63 13
e 63 18
e 63 23
e 63 27
e 63 33
e 63 36
e 63 41
e 63 43
e 63 45
e 63 52
e 63 53
e 63 54
e 63 61
e 63 62
e 64 4
e 64 10
e 64 14
e 64 19
e 64 24
e 64 28
e 64 31
e 64 34
e 64 37
e 64 42
e 64 44
e 64 46
e 64 53
e 64 54
e 64 55
e 64 61
e 64 62
e 64 63
e 65 5
e 65 15
e 65 20
e 65 21
e 65 25
e 65 29
e 65 32
e 65 35
e 65 38
e 65 43
e 65 45
e 65 47
e 65 54
e 65 55
e 65 56
e 65 61
e 65 62
e 65 63
e 65 64
e 66 6
e 66 11
e 66 16
e 66 22
e 66 26
e 66 30
e 66 33
e 66 36
e 66 39
e 66 44
e 66 46
e 66 48
e 66 55
e 66 56
e 66 57
e 66 61
e 66 62
e 66 63
e 66 64
e 66 65
e 67 1
e 67 7
e 67 12
e 67 17
e 67 23
e 67 27
e 67 34
e 67 37
e 67 40
e 67 45
e 67 47
e 67 49
e 67 56
e 67 57
e 67 58
e 67 61
e 67 62
e 67 63
e 67 64
e 67 65
e 67 66
e 68 2
e 68 8
e 68 13
e 68 18
e 68 24
e 68 28
e 68 35
e 68 38
e 68 46
e 68 48
e 68 50
e 68 57
e 68 58
e 68 59
e 68 61
e 68 62
e 68 63
e 68 64
e 68 65
e 68 66
e 68 67
e 69 3
e 69 9
e 69 14
e 69 19
e 69 25
e 69 29
e 69 36
e 69 39
e 69 47
e 69 49
e 69 58
e 69 59
e 69 60
e 69 61
e 69 62
e 69 63
e 69 64
e 69 65
e 69 66
e 69 67
e 69 68
e 70 4
e 70 10
e 70 15
e 70 20
e 70 26
e 70 30
e 70 37
e 70 40
e 70 48
e 70 50
e 70 59
e 70 60
e 70 61
e 70 62
e 70 63
e 70 64
e 70 65
e 70 66
e 70 67
e 70 68
e 70 69
e 71 1
e 71 8
e 71 11
e 71 17
e 71 21
e 71 26
e 71 31
e 71 35
e 71 41
e 71 44
e 71 51
e 71 53
e 71 61
e 71 62
e 72 2
e 72 9
e 72 12
e 72 18
e 72 22
e 72 27
e 72 32
e 72 36
e 72 42
e 72 45
e 72 52
e 72 54
e 72 61
e 72 62
e 72 63
e 72 71
e 73 3
e 73 10
e 73 13
e 73 19
e 73 23
e 73 28
e 73 33
e 73 37
e 73 43
e 73 46
e 73 51
e 73 53
e 73 55
e 73 62
e 73 63
e 73 64
e 73 71
e 73 72
e 74 4
e 74 14
e 74 20
e 74 24
e 74 29
e 74 34
e 74 38
e 74 41
e 74 44
e 74 47
e 74 52
e 74 54
e 74 56
e 74 63
e 74 64
e 74 65
e 74 71
e 74 72
e 74 73
e 75 5
e 75 15
e 75 25
e 75 30
e 75 31
e 75 35
e 75 39
e 75 42
e 75 45
e 75 48
e 75 53
e 75 55
e 75 57
e 75 64
e 75 65
e 75 66
e 75 71
e 75 72
e 75 73
e 75 74
e 76 6
e 76 16
e 76 21
e 76 26
e 76 32
e 76 36
e 76 40
e 76 43
e 76 46
e 76 49
e 76 54
e 76 56
e 76 58
e 76 65
e 76 66
e 76 67
e 76 71
e 76 72
e 76 73
e 76 74
e 76 75
e 77 7
e 77 11
e 77 17
e 77 22
e 77 27
e 77 33
e 77 37
e 77 44
e 77 47
e 77 50
e 77 55
e 77 57
e 77 59
e 77 66
e 77 67
e 77 68
e 77 71
e 77 72
e 77 73
e 77 74
e 77 75
e 77 76
e 78 1
e 78 8
e 78 12
e 78 18
e 78 23
e 78 28
e 78 34
e 78 38
e 78 45
e 78 48
e 78 56
e 78 58
e 78 60
e 78 67
e 78 68
e 78 69
e 78 71
e 78 72
e 78 73
e 78 74
e 78 75
e 78 76
e 78 77
e 79 2
e 79 9
e 79 13
e 79 19
e 79 24
e 79 29
e 79 35
e 79 39
e 79 46
e 79 49
e 79 57
e 79 59
e 79 68
e 79 69
e 79 70
e 79 71
e 79 72
e 79 73
e 79 74
e 79 75
e 79 76
e 79 77
e 79 78
e 80 3
e 80 10
e 80 14
e 80 20
e 80 25
e 80 30
e 80 36
e 80 40
e 80 47
e 80 50
e 80 58
e 80 60
e 80 69
e 80 70
e 80 71
e 80 72
e 80 73
e 80 74
e 80 75
e 80 76
e 80 77
e 80 78
e 80 79
e 81 1
e 81 9
e 81 11
e 81 18
e 81 21
e 81 27
e 81 31
e 81 36
e 81 41
e 81 45
e 81 51
e 81 54
e 81 61
e 81 63
e 81 71
e 81 72
e 82 2
e 82 10
e 82 12
e 82 19
e 82 22
e 82 28
e 82 32
e 82 37
e 82 42
e 82 46
e 82 52
e 82 55
e 82 62
e 82 64
e 82 71
e 82 72
e 82 73
e 82 81
e 83 3
e 83 13
e 83 20
e 83 23
e 83 29
e 83 33
e 83 38
e 83 43
e 83 47
e 83 53
e 83 56
e 83 61
e 83 63
e 83 65
e 83 72
e 83 73
e 83 74
e 83 81
e 83 82
e 84 4
e 84 14
e 84 24
e 84 30
e 84 34
e 84 39
e 84 44
e 84 48
e 84 51
e 84 54
e 84 57
e 84 62
e 84 64
e 84 66
e 84 73
e 84 74
e 84 75
e 84 81
e 84 82
e 84 83
e 85 5
e 85 15
e 85 25
e 85 35
e 85 40
e 85 41
e 85 45
e 85 49
e 85 52
e 85 55
e 85 58
e 85 63
e 85 65
e 85 67
e 85 74
e 85 75
e 85 76
e 85 81
e 85 82
e 85 83
e 85 84
e 86 6
e 86 16
e 86 26
e 86 31
e 86 36
e 86 42
e 86 46
e 86 50
e 86 53
e 86 56
e 86 59
e 86 64
e 86 66
e 86 68
e 86 75
e 86 76
e 86 77
e 86 81
e 86 82
e 86 83
e 86 84
e 86 85
e 87 7
e 87 17
e 87 21
e 87 27
e 87 32
e 87 37
e 87 43
e 87 47
e 87 54
e 87 57
e 87 60
e 87 65
e 87 67
e 87 69
e 87 76
e 87 77
e 87 78
e 87 81
e 87 82
e 87 83
e 87 84
e 87 85
e 87 86
e 88 8
e 88 11
e 88 18
e 88 22
e 88 28
e 88 33
e 88 38
e 88 44
e 88 48
e 88 55
e 88 58
e 88 66
e 88 68
e 88 70
e 88 77
e 88 78
e 88 79
e 88 81
e 88 82
e 88 83
e 88 84
e 88 85
e 88 86
e 88 87
e 89 1
e 89 9
e 89 12
e 89 19
e 89 23
e 89 29
e 89 34
e 89 39
e 89 45
e 89 49
e 89 56
e 89 59
e 89 67
e 89 69
e 89 78
e 89 79
e 89 80
e 89 81
e 89 82
e 89 83
e 89 84
e 89 85
e 89 86
e 89 87
e 89 88
e 90 2
e 90 10
e 90 13
e 90 20
e 90 24
e 90 30
e 90 35
e 90 40
e 90 46
e 90 50
e 90 57
e 90 60
e 90 68
e 90 70
e 90 79
e 90 80
e 90 81
e 90 82
e 90 83
e 90 84
e 90 85
e 90 86
e 90 87
e 90 88
e 90 89
e 91 1
e 91 10
e 91 11
e 91 19
e 91 21
e 91 28
e 91 31
e 91 37
e 91 41
e 91 46
e 91 51
e 91 55
e 91 61
e 91 64
e 91 71
e 91 73
e 91 81
e 91 82
e 92 2
e 92 12
e 92 20
e 92 22
e 92 29
e 92 32
e 92 38
e 92 42
e 92 47
e 92 52
e 92 56
e 92 62
e 92 65
e 92 72
e 92 74
e 92 81
e 92 82
e 92 83
e 92 91
e 93 3
e 93 13
e 93 23
e 93 30
e 93 33
e 93 39
e 93 43
e 93 48
e 93 53
e 93 57
e 93 63
e 93 66
e 93 71
e 93 73
e 93 75
e 93 82
e 93 83
e 93 84
e 93 91
e 93 92
e 94 4
e 94 14
e 94 24
e 94 34
e 94 40
e 94 44
e 94 49
e 94 54
e 94 58
e 94 61
e 94 64
e 94 67
e 94 72
e 94 74
e 94 76
e 94 83
e 94 84
e 94 85
e 94 91
e 94 92
e 94 93
e 95 5
e 95 15
e 95 25
e 95 35
e 95 45
e 95 50
e 95 51
e 95 55
e 95 59
e 95 62
e 95 65
e 95 68
e 95 73
e 95 75
e 95 77
e 95 84
e 95 85
e 95 86
e 95 91
e 95 92
e 95 93
e 95 94
e 96 6
e 96 16
e 96 26
e 96 36
e 96 41
e 96 46
e 96 52
e 96 56
e 96 60
e 96 63
e 96 66
e 96 69
e 96 74
e 96 76
e 96 78
e 96 85
e 96 86
e 96 87
e 96 91
e 96 92
e 96 93
e 96 94
e 96 95
e 97 7
e 97 17
e 97 27
e 97 31
e 97 37
e 97 42
e 97 47
e 97 53
e 97 57
e 97 64
e 97 67
e 97 70
e 97 75
e 97 77
e 97 79
e 97 86
e 97 87
e 97 88
e 97 91
e 97 92
e 97 93
e 97 94
e 97 95
e 97 96
e 98 8
e 98 18
e 98 21
e 98 28
e 98 32
e 98 38
e 98 43
e 98 48
e 98 54
e 98 58
e 98 65
e 98 68
e 98 76
e 98 78
e 98 80
e 98 87
e 98 88
e 98 89
e 98 91
e 98 92
e 98 93
e 98 94
e 98 95
e 98 96
e 98 97
e 99 9
e 99 11
e 99 19
e 99 22
e 99 29
e 99 33
e 99 39
e 99 44
e 99 49
e 99 55
e 99 59
e 99 66
e 99 69
e 99 77
e 99 79
e 99 88
e 99 89
e 99 90
e 99 91
e 99 92
e 99 93
e 99 94
e 99 95
e 99 96
e 99 97
e 99 98
e 100 1
e 100 10
e 100 12
e 100 20
e 100 23
e 100 30
e 100 34
e 100 40
e 100 45
e 100 50
e 100 56
e 100 60
e 100 67
e 100 70
e 100 78
e 100 80
e 100 89
e 100 90
e 100 91
e 100 92
e 100 93
e 100 94
e 100 95
e 100 96
e 100 97
e 100 98
e 100 99
